50
3 99 90 48 
2 82 17 
2 105 102 
2 84 92 
2 94 32 
2 6 53 
2 13 36 
2 21 86 
2 9 63 
2 24 45 
2 52 104 
2 47 93 
2 76 68 
2 103 25 
2 2 37 
2 44 107 
2 35 57 
2 14 96 
2 58 49 
2 85 75 
2 83 116 
2 79 74 
2 108 26 
2 111 8 
2 19 33 
2 97 4 
2 106 30 
2 20 34 
2 50 55 
2 65 15 
2 71 72 
3 69 10 91 
2 119 46 
2 61 87 
3 100 62 66 
2 54 80 
2 12 39 
2 60 118 
2 78 113 
2 40 42 
3 5 56 110 
2 70 51 
2 98 1 
4 88 7 117 27 
3 112 11 23 
4 115 3 64 29 
4 89 18 28 95 
4 120 101 31 73 
5 81 43 109 22 114 
6 16 59 67 77 38 41 
